100
128
10
34
7
6
35
3
1
6
11
18
58
11
24
14
9
10
64
3
37
26
37
13
13
10
23
13
38
16
18
61
2
24
45
1
43
55
48
51
61
48
53
37
6
1
22
2
52
12
58
5
49
1
43
1
47
46
22
5
50
58
54
2
53
14
21
1
4
45
39
45
23
20
31
35
50
28
60
44
7
31
43
7
5
36
49
53
25
22
32
63
6
4
4
3
3
6
49
22
56
6